(set-info :smt-lib-version 2.6)
(set-logic QF_FP)
(set-info :source |
Generated by: Chenqi Cui
Generated on: 2025-10-11
Generator: AutoSMTGen
Application: Generating SMT constraints with small solution spaces to make them challenging for SMT solvers
Target solver: Z3, CVC5, Bitwuzla
|)
(set-info :license "https://creativecommons.org/licenses/by/4.0/")
(set-info :category "industrial")
(set-info :status sat)
; benchmark generated from python API

(declare-fun x8 () (_ FloatingPoint 11 53))
(declare-fun x7 () (_ FloatingPoint 11 53))
(declare-fun x6 () (_ FloatingPoint 11 53))
(declare-fun x5 () (_ FloatingPoint 11 53))
(declare-fun x4 () (_ FloatingPoint 11 53))
(declare-fun x3 () (_ FloatingPoint 11 53))
(declare-fun x2 () (_ FloatingPoint 11 53))
(declare-fun x1 () (_ FloatingPoint 11 53))
(declare-fun x0 () (_ FloatingPoint 11 53))
(assert
 (let ((?x19 (fp.add roundNearestTiesToEven (fp.mul roundNearestTiesToEven (fp #b0 #b10000000100 #xb0d35f577425f) x0) (fp.mul roundNearestTiesToEven (fp #b1 #b01111111100 #xa10fee711fcb1) x1))))
 (let ((?x22 (fp.add roundNearestTiesToEven ?x19 (fp.mul roundNearestTiesToEven (fp #b0 #b10000000010 #xaad58d2706d55) x2))))
 (let ((?x25 (fp.add roundNearestTiesToEven ?x22 (fp.mul roundNearestTiesToEven (fp #b0 #b10000000011 #x151d82e022db9) x3))))
 (let ((?x28 (fp.add roundNearestTiesToEven ?x25 (fp.mul roundNearestTiesToEven (fp #b0 #b10000000100 #x4a066b07609b6) x4))))
 (let ((?x31 (fp.add roundNearestTiesToEven ?x28 (fp.mul roundNearestTiesToEven (fp #b0 #b10000000000 #x9e3bb02159b5a) x5))))
 (let ((?x34 (fp.add roundNearestTiesToEven ?x31 (fp.mul roundNearestTiesToEven (fp #b0 #b10000000100 #x84796c5521c63) x6))))
 (let ((?x37 (fp.add roundNearestTiesToEven ?x34 (fp.mul roundNearestTiesToEven (fp #b0 #b10000000011 #xe183337f35c46) x7))))
 (let ((?x40 (fp.add roundNearestTiesToEven ?x37 (fp.mul roundNearestTiesToEven (fp #b0 #b10000000011 #xdc8dc294ee95b) x8))))
 (fp.leq ?x40 (fp #b0 #b10000000100 #x6747fa5aa52f2)))))))))))
(assert
 (let ((?x64 (fp.add roundNearestTiesToEven (fp.mul roundNearestTiesToEven (fp #b0 #b10000000101 #x4579304903b13) x0) (fp.mul roundNearestTiesToEven (fp #b0 #b10000000101 #x44887d48611c2) x1))))
 (let ((?x67 (fp.add roundNearestTiesToEven ?x64 (fp.mul roundNearestTiesToEven (fp #b0 #b10000000001 #x88a2fd8839af7) x2))))
 (let ((?x70 (fp.add roundNearestTiesToEven ?x67 (fp.mul roundNearestTiesToEven (fp #b0 #b10000000100 #x3de893a8ebdac) x3))))
 (let ((?x73 (fp.add roundNearestTiesToEven ?x70 (fp.mul roundNearestTiesToEven (fp #b0 #b10000000101 #x37adba76effec) x4))))
 (let ((?x76 (fp.add roundNearestTiesToEven ?x73 (fp.mul roundNearestTiesToEven (fp #b0 #b10000000101 #x5d32bdf6c0d5c) x5))))
 (let ((?x79 (fp.add roundNearestTiesToEven ?x76 (fp.mul roundNearestTiesToEven (fp #b0 #b10000000101 #x093d24ea20e66) x6))))
 (let ((?x82 (fp.add roundNearestTiesToEven ?x79 (fp.mul roundNearestTiesToEven (fp #b1 #b10000000101 #x3470ead27fd7a) x7))))
 (let ((?x85 (fp.add roundNearestTiesToEven ?x82 (fp.mul roundNearestTiesToEven (fp #b0 #b10000000100 #x6c9aa74c61435) x8))))
 (fp.leq ?x85 (fp #b0 #b10000000100 #x164c646c01690)))))))))))
(assert
 (let ((?x92 (fp.add roundNearestTiesToEven (fp.mul roundNearestTiesToEven (fp #b0 #b10000000101 #x633552d34eade) x0) (fp.mul roundNearestTiesToEven (fp #b0 #b10000000101 #x2c53aa2eeb76e) x1))))
 (let ((?x95 (fp.add roundNearestTiesToEven ?x92 (fp.mul roundNearestTiesToEven (fp #b0 #b10000000100 #x05679c7e42a7e) x2))))
 (let ((?x98 (fp.add roundNearestTiesToEven ?x95 (fp.mul roundNearestTiesToEven (fp #b0 #b10000000001 #xa31be07be37b4) x3))))
 (let ((?x101 (fp.add roundNearestTiesToEven ?x98 (fp.mul roundNearestTiesToEven (fp #b1 #b10000000100 #x3206f2251ad50) x4))))
 (let ((?x104 (fp.add roundNearestTiesToEven ?x101 (fp.mul roundNearestTiesToEven (fp #b0 #b10000000100 #xeb84893c7475f) x5))))
 (let ((?x107 (fp.add roundNearestTiesToEven ?x104 (fp.mul roundNearestTiesToEven (fp #b0 #b10000000101 #x5cbe496338d63) x6))))
 (let ((?x110 (fp.add roundNearestTiesToEven ?x107 (fp.mul roundNearestTiesToEven (fp #b0 #b10000000101 #x0dd284715355b) x7))))
 (let ((?x113 (fp.add roundNearestTiesToEven ?x110 (fp.mul roundNearestTiesToEven (fp #b1 #b10000000100 #xae2c025c26d94) x8))))
 (fp.leq ?x113 (fp #b0 #b10000000000 #xc4a19abca8607)))))))))))
(assert
 (let ((?x120 (fp.add roundNearestTiesToEven (fp.mul roundNearestTiesToEven (fp #b1 #b10000000011 #xbaf2d1115f37c) x0) (fp.mul roundNearestTiesToEven (fp #b1 #b10000000011 #xdddcac961502e) x1))))
 (let ((?x123 (fp.add roundNearestTiesToEven ?x120 (fp.mul roundNearestTiesToEven (fp #b1 #b10000000000 #xa774d9b71046f) x2))))
 (let ((?x126 (fp.add roundNearestTiesToEven ?x123 (fp.mul roundNearestTiesToEven (fp #b0 #b10000000100 #xb10d243c7b3ed) x3))))
 (let ((?x129 (fp.add roundNearestTiesToEven ?x126 (fp.mul roundNearestTiesToEven (fp #b0 #b10000000100 #x855d678718d44) x4))))
 (let ((?x132 (fp.add roundNearestTiesToEven ?x129 (fp.mul roundNearestTiesToEven (fp #b0 #b10000000100 #x7f7cea274e473) x5))))
 (let ((?x135 (fp.add roundNearestTiesToEven ?x132 (fp.mul roundNearestTiesToEven (fp #b1 #b10000000100 #x1fa4fa3febb3d) x6))))
 (let ((?x138 (fp.add roundNearestTiesToEven ?x135 (fp.mul roundNearestTiesToEven (fp #b0 #b10000000011 #xb524a7b1ff092) x7))))
 (let ((?x141 (fp.add roundNearestTiesToEven ?x138 (fp.mul roundNearestTiesToEven (fp #b0 #b10000000100 #xecda440a8145c) x8))))
 (fp.leq ?x141 (fp #b1 #b10000000101 #x54dde4bd9d05d)))))))))))
(assert
 (let ((?x148 (fp.add roundNearestTiesToEven (fp.mul roundNearestTiesToEven (fp #b1 #b10000000101 #x730b286de68ed) x0) (fp.mul roundNearestTiesToEven (fp #b0 #b10000000100 #x2b9841fd6045c) x1))))
 (let ((?x151 (fp.add roundNearestTiesToEven ?x148 (fp.mul roundNearestTiesToEven (fp #b1 #b10000000101 #x28c0d2913e213) x2))))
 (let ((?x154 (fp.add roundNearestTiesToEven ?x151 (fp.mul roundNearestTiesToEven (fp #b1 #b10000000100 #x9f78047afc5db) x3))))
 (let ((?x157 (fp.add roundNearestTiesToEven ?x154 (fp.mul roundNearestTiesToEven (fp #b0 #b10000000100 #x80b4f316fe062) x4))))
 (let ((?x160 (fp.add roundNearestTiesToEven ?x157 (fp.mul roundNearestTiesToEven (fp #b1 #b10000000100 #x8bedc1dd3d1c9) x5))))
 (let ((?x163 (fp.add roundNearestTiesToEven ?x160 (fp.mul roundNearestTiesToEven (fp #b0 #b10000000010 #x49246d9cabeaf) x6))))
 (let ((?x166 (fp.add roundNearestTiesToEven ?x163 (fp.mul roundNearestTiesToEven (fp #b0 #b10000000101 #x90e9bce15ab71) x7))))
 (let ((?x169 (fp.add roundNearestTiesToEven ?x166 (fp.mul roundNearestTiesToEven (fp #b0 #b10000000101 #x175f9f8424f9c) x8))))
 (fp.leq ?x169 (fp #b0 #b10000000011 #x07809194c8de1)))))))))))
(assert
 (let ((?x176 (fp.add roundNearestTiesToEven (fp.mul roundNearestTiesToEven (fp #b1 #b10000000101 #x2d4da00a212d0) x0) (fp.mul roundNearestTiesToEven (fp #b0 #b10000000100 #x4f700994ad649) x1))))
 (let ((?x179 (fp.add roundNearestTiesToEven ?x176 (fp.mul roundNearestTiesToEven (fp #b0 #b10000000101 #x1e35b6f719754) x2))))
 (let ((?x182 (fp.add roundNearestTiesToEven ?x179 (fp.mul roundNearestTiesToEven (fp #b1 #b10000000100 #x472938217bfdd) x3))))
 (let ((?x185 (fp.add roundNearestTiesToEven ?x182 (fp.mul roundNearestTiesToEven (fp #b0 #b10000000100 #xe84a42827c2d9) x4))))
 (let ((?x188 (fp.add roundNearestTiesToEven ?x185 (fp.mul roundNearestTiesToEven (fp #b1 #b10000000101 #x85d6b004b818a) x5))))
 (let ((?x191 (fp.add roundNearestTiesToEven ?x188 (fp.mul roundNearestTiesToEven (fp #b1 #b10000000100 #x93eba5a199b82) x6))))
 (let ((?x194 (fp.add roundNearestTiesToEven ?x191 (fp.mul roundNearestTiesToEven (fp #b1 #b10000000101 #x7e2f7a6d0229e) x7))))
 (let ((?x197 (fp.add roundNearestTiesToEven ?x194 (fp.mul roundNearestTiesToEven (fp #b1 #b10000000101 #x86b6341fd1399) x8))))
 (fp.leq ?x197 (fp #b1 #b10000000100 #xbb61887dbac14)))))))))))
(assert
 (let ((?x204 (fp.add roundNearestTiesToEven (fp.mul roundNearestTiesToEven (fp #b0 #b10000000100 #xd43c049571092) x0) (fp.mul roundNearestTiesToEven (fp #b0 #b10000000011 #xadf919487fe60) x1))))
 (let ((?x207 (fp.add roundNearestTiesToEven ?x204 (fp.mul roundNearestTiesToEven (fp #b1 #b10000000011 #xa05bc3cafdb01) x2))))
 (let ((?x210 (fp.add roundNearestTiesToEven ?x207 (fp.mul roundNearestTiesToEven (fp #b0 #b10000000011 #xbbadc374679ba) x3))))
 (let ((?x213 (fp.add roundNearestTiesToEven ?x210 (fp.mul roundNearestTiesToEven (fp #b1 #b10000000001 #xabeed5f9bc864) x4))))
 (let ((?x216 (fp.add roundNearestTiesToEven ?x213 (fp.mul roundNearestTiesToEven (fp #b1 #b10000000100 #xafc0f5dd80445) x5))))
 (let ((?x219 (fp.add roundNearestTiesToEven ?x216 (fp.mul roundNearestTiesToEven (fp #b1 #b10000000101 #x4ccd067b85a5d) x6))))
 (let ((?x222 (fp.add roundNearestTiesToEven ?x219 (fp.mul roundNearestTiesToEven (fp #b1 #b10000000100 #x4ae380383b4b8) x7))))
 (let ((?x225 (fp.add roundNearestTiesToEven ?x222 (fp.mul roundNearestTiesToEven (fp #b0 #b10000000100 #xfa8f16e214d44) x8))))
 (fp.leq ?x225 (fp #b1 #b10000000011 #xd6fd640d908f9)))))))))))
(assert
 (let ((?x232 (fp.add roundNearestTiesToEven (fp.mul roundNearestTiesToEven (fp #b1 #b10000000101 #x2df98a0cafc1f) x0) (fp.mul roundNearestTiesToEven (fp #b1 #b10000000100 #xb9e8bba5a0ac4) x1))))
 (let ((?x235 (fp.add roundNearestTiesToEven ?x232 (fp.mul roundNearestTiesToEven (fp #b0 #b10000000101 #x82d58d94aa80b) x2))))
 (let ((?x238 (fp.add roundNearestTiesToEven ?x235 (fp.mul roundNearestTiesToEven (fp #b0 #b10000000101 #x92239d0b379fd) x3))))
 (let ((?x241 (fp.add roundNearestTiesToEven ?x238 (fp.mul roundNearestTiesToEven (fp #b1 #b10000000101 #x5e66d6173e30f) x4))))
 (let ((?x244 (fp.add roundNearestTiesToEven ?x241 (fp.mul roundNearestTiesToEven (fp #b0 #b10000000010 #x5081e4eaf5a4b) x5))))
 (let ((?x247 (fp.add roundNearestTiesToEven ?x244 (fp.mul roundNearestTiesToEven (fp #b1 #b10000000100 #x8f6ea8444df45) x6))))
 (let ((?x250 (fp.add roundNearestTiesToEven ?x247 (fp.mul roundNearestTiesToEven (fp #b1 #b10000000100 #x93fdbaa685261) x7))))
 (let ((?x253 (fp.add roundNearestTiesToEven ?x250 (fp.mul roundNearestTiesToEven (fp #b1 #b10000000101 #x3e677284f346c) x8))))
 (fp.leq ?x253 (fp #b1 #b10000000100 #x950ac0f4d6fea)))))))))))
(assert
 (let ((?x260 (fp.add roundNearestTiesToEven (fp.mul roundNearestTiesToEven (fp #b0 #b10000000101 #x3595840e4418f) x0) (fp.mul roundNearestTiesToEven (fp #b0 #b10000000100 #xa06bda1782af8) x1))))
 (let ((?x263 (fp.add roundNearestTiesToEven ?x260 (fp.mul roundNearestTiesToEven (fp #b0 #b10000000101 #x1df380de35148) x2))))
 (let ((?x266 (fp.add roundNearestTiesToEven ?x263 (fp.mul roundNearestTiesToEven (fp #b1 #b10000000100 #xc5cb19351f2cf) x3))))
 (let ((?x269 (fp.add roundNearestTiesToEven ?x266 (fp.mul roundNearestTiesToEven (fp #b1 #b10000000011 #x947098fdc173a) x4))))
 (let ((?x272 (fp.add roundNearestTiesToEven ?x269 (fp.mul roundNearestTiesToEven (fp #b1 #b10000000101 #x0d7c3e8e949b0) x5))))
 (let ((?x275 (fp.add roundNearestTiesToEven ?x272 (fp.mul roundNearestTiesToEven (fp #b0 #b10000000100 #x51de78785fa3e) x6))))
 (let ((?x278 (fp.add roundNearestTiesToEven ?x275 (fp.mul roundNearestTiesToEven (fp #b1 #b10000000011 #x47be3f7e5e977) x7))))
 (let ((?x281 (fp.add roundNearestTiesToEven ?x278 (fp.mul roundNearestTiesToEven (fp #b1 #b10000000101 #x6e48bf5cebc7e) x8))))
 (fp.leq ?x281 (fp #b1 #b10000000000 #x2cce59a479a15)))))))))))
(assert
 (let ((?x288 (fp.add roundNearestTiesToEven (fp.mul roundNearestTiesToEven (fp #b0 #b10000000001 #x1c8388b56bc24) x0) (fp.mul roundNearestTiesToEven (fp #b1 #b10000000101 #x544634405f7c3) x1))))
 (let ((?x291 (fp.add roundNearestTiesToEven ?x288 (fp.mul roundNearestTiesToEven (fp #b0 #b10000000011 #xfbca6b92a2bf6) x2))))
 (let ((?x294 (fp.add roundNearestTiesToEven ?x291 (fp.mul roundNearestTiesToEven (fp #b1 #b10000000100 #x43f4ba273a201) x3))))
 (let ((?x297 (fp.add roundNearestTiesToEven ?x294 (fp.mul roundNearestTiesToEven (fp #b1 #b10000000100 #xffd1311a94afb) x4))))
 (let ((?x300 (fp.add roundNearestTiesToEven ?x297 (fp.mul roundNearestTiesToEven (fp #b1 #b01111111111 #x2f88f42de6141) x5))))
 (let ((?x303 (fp.add roundNearestTiesToEven ?x300 (fp.mul roundNearestTiesToEven (fp #b1 #b10000000100 #x5bf731181333c) x6))))
 (let ((?x306 (fp.add roundNearestTiesToEven ?x303 (fp.mul roundNearestTiesToEven (fp #b0 #b10000000100 #xbb4e0e25ea446) x7))))
 (let ((?x309 (fp.add roundNearestTiesToEven ?x306 (fp.mul roundNearestTiesToEven (fp #b0 #b10000000101 #x00f54ad8eda33) x8))))
 (fp.leq ?x309 (fp #b1 #b10000000100 #x6de62cb0ea453)))))))))))
(assert
 (let ((?x316 (fp.add roundNearestTiesToEven (fp.mul roundNearestTiesToEven (fp #b1 #b10000000101 #x6798831103492) x0) (fp.mul roundNearestTiesToEven (fp #b1 #b10000000010 #xb5b0b4f9d1f79) x1))))
(let ((?x319 (fp.add roundNearestTiesToEven ?x316 (fp.mul roundNearestTiesToEven (fp #b1 #b10000000100 #x6bbe1e1747890) x2))))
(let ((?x322 (fp.add roundNearestTiesToEven ?x319 (fp.mul roundNearestTiesToEven (fp #b1 #b10000000101 #x0f05834fc6bb1) x3))))
(let ((?x325 (fp.add roundNearestTiesToEven ?x322 (fp.mul roundNearestTiesToEven (fp #b1 #b10000000101 #x4e2ca58877cb8) x4))))
(let ((?x328 (fp.add roundNearestTiesToEven ?x325 (fp.mul roundNearestTiesToEven (fp #b1 #b10000000100 #xc8f2aefebf70f) x5))))
(let ((?x331 (fp.add roundNearestTiesToEven ?x328 (fp.mul roundNearestTiesToEven (fp #b1 #b10000000101 #x0072f10c5d681) x6))))
(let ((?x334 (fp.add roundNearestTiesToEven ?x331 (fp.mul roundNearestTiesToEven (fp #b1 #b10000000011 #x098c004305527) x7))))
(let ((?x337 (fp.add roundNearestTiesToEven ?x334 (fp.mul roundNearestTiesToEven (fp #b1 #b10000000101 #x52600cfab88e4) x8))))
(fp.leq ?x337 (fp #b0 #b10000000101 #x811c40080d46b)))))))))))
(check-sat)
(exit)
